NAME: burma14_random
TYPE: TSP
COMMENT: Generated by TSP Project Generator
DIMENSION: 14
EDGE_WEIGHT_TYPE: EUC_2D
NODE_COORD_SECTION
 1 28.0000 692.0000
 2 52.0000 855.0000
 3 79.0000 747.0000
 4 106.0000 590.0000
 5 171.0000 181.0000
 6 178.0000 682.0000
 7 407.0000 190.0000
 8 418.0000 422.0000
 9 602.0000 933.0000
 10 646.0000 620.0000
 11 675.0000 717.0000
 12 742.0000 27.0000
 13 805.0000 740.0000
 14 905.0000 978.0000
EOF
